ssat_solver_solve2
#level: 2
Abc_NtkNodeNum(s->pNtk): 1776  , BDD limit: 10240
level 1: 15 element
Exist
existence_eliminate_scope
Abc_NtkIsBddLogic(pNtk): 0
Abc_NtkIsStrash(pNtk): 1
existence_eliminate_scope_aig
exist by BDD failed
Abc_NtkNodeNum(s->pNtk): 984074  , BDD limit: 1180888
Build BDD success
level 0: 15 element
Random
c ssat solving in ABC
#var: 30
s SATISFIABLE
  > Upper bound = 9.685059e-01
  > Lower bound = 9.685059e-01
FINISHED CPU 33.31 MEM 0 MAXMEM 227576 STALE 0 MAXMEM_RSS 180348
<time name="ALL">33310</time>
real 53.33
user 37.14
sys 10.48
